46
75
52	2
51	3
50	7
49	6
48	7
47	11
46	9
45	8
44	2
43	4
42	8
41	6
40	11
39	3
38	5
37	6
36	6
35	11
34	8
33	9
32	5
31	2
30	7
29	8
28	12
27	2
26	6
25	3
24	8
23	6
22	6
21	4
20	6
19	10
18	6
17	6
16	5
15	10
14	3
13	8
12	6
11	10
10	5
9	8
8	4
7	12
